ACTORES = {Actor0, Actor1, Actor2, Actor3, Actor4, Actor5, Actor6, Actor7, Actor8, Actor9};
Escenas =[|1,0,0,14
		  |1,0,0,17
		  |1,1,0,4
		  |0,1,0,13
		  |1,0,0,6
		  |1,1,1,5
		  |0,0,1,9
		  |0,0,1,20
		  |1,1,1,1
		  |1,1,1,4
		  |];
Duracion=[5, 2, 4];